peakDumbCharging = 29600; 
Machine = anon_enum(16); 
machineSpeed = [3700,3700,3700,3700,3700,3700,3700,3700,3700,3700,3700,3700,3700,3700,3700,3700]; 
machineLoad = [3700,3700,3700,3700,3700,3700,3700,3700,3700,3700,3700,3700,3700,3700,3700,3700]; 
Car = anon_enum(36); 
demandCar = [7600,2400,11720,3200,8320,4280,6000,1640,2080,26440,8640,6160,5240,11040,5480,20280,3840,29720,11280,8480,3640,25640,3000,6480,4480,4800,2040,2040,8520,16960,6640,14240,18880,10040,15840,12480]; 
arrivalCar = [70,69,66,65,64,64,64,62,60,58,58,57,54,53,53,52,51,51,50,50,50,50,49,49,48,47,47,46,46,45,42,42,40,39,36,35]; 
departureCar = [74,70,70,68,69,74,68,64,63,70,63,61,58,62,57,60,55,64,56,56,53,64,52,55,51,50,49,48,49,52,47,48,49,52,42,40]; 
